89 18 60 83 45 46 36 64 11 62 88 7 82 8 48 47 49 19 10 63 90 32 20 66 71 35 51 70 31 52 
94 95 92 37 91 16 86 38 44 14 87 57 41 22 74 4 55 25 54 24 29 77 28 
97 42 43 15 39 67 23 56 75 72 21 73 2 13 58 
50 33 81 65 9 34 78 79 3 68 80 12 
27 69 30 1 76 26 40 53 
6 99 5 84 17 61 85 100 98 93 59 96 
